BAYES
376
2 2 2 2 2 2 2 2 2 2 2 2 2 2 2 2 2 2 2 2 2 2 2 2 2 2 2 2 2 2 2 2 2 2 2 2 2 2 2 2 2 2 2 2 2 2 2 2 2 2 2 2 2 2 2 2 2 2 2 2 2 2 2 2 2 2 2 2 2 2 2 2 2 2 2 2 2 2 2 2 2 2 2 2 2 2 2 2 2 2 2 2 2 2 2 2 2 2 2 2 2 2 2 2 2 2 2 2 2 2 2 2 2 2 2 2 2 2 2 2 2 2 2 2 2 2 2 2 2 2 2 2 2 2 2 2 2 2 2 2 2 2 2 2 2 2 2 2 2 2 2 2 2 2 2 2 2 2 2 2 2 2 2 2 2 2 2 2 2 2 2 2 2 2 2 2 2 2 2 2 2 2 2 2 2 2 2 2 2 2 2 2 2 2 2 2 2 2 2 2 2 2 2 2 2 2 2 2 2 2 2 2 2 2 2 2 2 2 2 2 2 2 2 2 2 2 2 2 2 2 2 2 2 2 2 2 2 2 2 2 2 2 2 2 2 2 2 2 2 2 2 2 2 2 2 2 2 2 2 2 2 2 2 2 2 2 2 2 2 2 2 2 2 2 2 2 2 2 2 2 2 2 2 2 2 2 2 2 2 2 2 2 2 2 2 2 2 2 2 2 2 2 2 2 2 2 2 2 2 2 2 2 2 2 2 2 2 2 2 2 2 2 2 2 2 2 2 2 2 2 2 2 2 2 2 2 2 2 2 2 2 2 2 2 2 2 2 2 2 2 2 2 2 2 2 2 2 2 2 2 2 2 2 2 2 2 2 2 2 2 2 2 2 2 2 2
376
1 0
1 1
1 2
1 3
1 4
1 5
1 6
1 7
1 8
1 9
1 10
1 11
1 12
1 13
2 1 14
2 8 15
2 11 16
2 14 17
2 15 18
2 16 19
2 18 20
3 15 20 21
3 20 15 22
3 18 20 23
3 12 21 24
2 22 25
2 24 26
3 0 25 27
3 25 0 28
3 26 25 29
3 0 26 30
3 26 27 31
2 28 32
3 26 29 33
3 26 29 34
3 5 30 35
2 31 36
3 32 17 37
3 17 32 38
3 15 33 39
3 15 34 40
2 35 41
3 17 36 42
3 36 32 43
2 37 44
3 36 38 45
3 17 41 46
3 41 36 47
3 41 42 48
3 14 44 49
3 44 14 50
2 45 51
3 2 46 52
3 47 43 53
3 47 43 54
2 48 55
2 50 56
3 14 51 57
3 51 49 58
3 51 44 59
2 52 60
3 41 53 61
3 41 54 62
3 14 55 63
3 55 51 64
3 56 9 65
3 9 56 66
3 55 57 67
2 58 68
3 60 55 69
3 14 60 70
3 0 61 71
3 0 62 72
3 60 63 73
2 65 74
2 67 75
3 68 66 76
3 68 56 77
3 9 68 78
3 69 64 79
3 69 64 80
3 13 70 81
2 73 82
3 19 74 83
3 74 19 84
3 75 68 85
3 9 75 86
2 76 87
3 75 78 88
3 79 59 89
3 80 59 90
2 81 91
3 82 75 92
3 9 82 93
2 84 94
3 82 86 95
3 19 87 96
3 87 83 97
3 87 74 98
2 88 99
3 60 89 100
3 60 90 101
3 9 91 102
3 91 82 103
3 91 93 104
3 94 16 105
3 16 94 106
2 95 107
2 97 108
3 99 87 109
3 99 96 110
3 19 99 111
3 17 100 112
3 17 101 113
3 10 102 114
3 103 92 115
3 103 92 116
2 104 117
2 105 118
3 107 99 119
3 19 107 120
3 108 106 121
3 16 108 122
3 108 94 123
2 110 124
3 107 111 125
2 114 126
3 115 85 127
3 116 85 128
3 19 117 129
3 117 107 130
3 118 7 131
3 7 118 132
3 117 120 133
2 121 134
3 16 124 135
3 124 108 136
3 124 122 137
2 125 138
3 126 117 139
3 19 126 140
3 127 77 141
3 128 77 142
3 126 129 143
2 131 144
2 133 145
3 134 118 146
3 134 132 147
3 7 134 148
2 137 149
3 138 135 150
3 16 138 151
3 138 124 152
3 139 130 153
3 139 130 154
3 4 140 155
3 91 141 156
3 91 142 157
2 143 158
3 16 145 159
3 145 138 160
2 147 161
3 149 134 162
3 149 148 163
3 7 149 164
2 150 165
3 145 151 166
3 153 119 167
3 154 119 168
2 155 169
3 14 156 170
3 14 157 171
3 158 145 172
3 16 158 173
3 158 159 174
3 161 144 175
2 163 176
3 165 149 177
3 7 165 178
3 165 164 179
2 166 180
3 167 109 181
3 168 109 182
3 16 169 183
3 169 158 184
3 169 173 185
2 174 186
3 176 161 187
2 179 188
3 7 180 189
3 180 178 190
3 180 165 191
3 181 98 192
3 182 98 193
3 3 183 194
3 184 172 195
3 184 172 196
2 185 197
3 7 186 198
3 186 180 199
3 188 176 200
3 186 189 201
2 190 202
3 126 192 203
3 126 193 204
2 194 205
3 195 160 206
3 196 160 207
3 7 197 208
3 197 186 209
3 197 198 210
2 201 211
3 202 188 212
3 9 203 213
3 9 204 214
3 7 205 215
3 205 197 216
3 206 152 217
3 207 152 218
3 205 208 219
2 210 220
3 211 202 221
3 6 215 222
3 216 209 223
3 216 209 224
3 217 136 225
3 218 136 226
2 219 227
3 220 211 228
2 222 229
3 223 199 230
3 224 199 231
3 225 123 232
3 226 123 233
3 227 220 234
3 229 227 235
3 230 191 236
3 231 191 237
3 169 232 238
3 169 233 239
3 235 234 240
3 235 234 241
3 236 177 242
3 237 177 243
3 19 238 244
3 19 239 245
3 240 228 246
3 241 228 247
3 242 162 248
3 243 162 249
3 246 221 250
3 247 221 251
3 248 146 252
3 249 146 253
3 250 212 254
3 251 212 255
3 205 252 256
3 205 253 257
3 254 200 258
3 255 200 259
3 16 256 260
3 16 257 261
3 258 187 262
3 259 187 263
3 262 175 264
3 263 175 265
3 229 264 266
3 229 265 267
3 7 266 268
3 7 267 269
2 268 270
2 269 271
3 270 260 272
3 271 261 273
2 272 274
2 273 275
3 270 274 276
3 270 274 277
3 271 275 278
3 271 275 279
3 276 244 280
3 278 245 281
2 280 282
2 281 283
3 277 282 284
3 276 282 285
3 279 283 286
3 278 283 287
3 285 214 288
3 287 213 289
2 288 290
2 289 291
3 285 290 292
3 284 290 293
3 285 290 294
3 284 290 295
3 286 291 296
3 287 291 297
3 286 291 298
3 287 291 299
3 292 171 300
3 297 170 301
2 300 302
2 301 303
3 293 302 304
3 294 302 305
3 295 302 306
3 292 302 307
3 297 303 308
3 296 303 309
3 299 303 310
3 298 303 311
3 307 112 312
3 308 113 313
2 312 314
2 313 315
3 304 314 316
3 306 314 317
3 305 314 318
3 307 314 319
3 308 315 320
3 311 315 321
3 309 315 322
3 310 315 323
3 319 71 324
3 320 72 325
2 324 326
2 325 327
3 319 326 328
3 316 326 329
3 318 326 330
3 317 326 331
3 323 327 332
3 322 327 333
3 320 327 334
3 321 327 335
3 328 40 336
3 334 39 337
2 336 338
2 337 339
3 331 338 340
3 330 338 341
3 328 338 342
3 329 338 343
3 333 339 344
3 332 339 345
3 335 339 346
3 334 339 347
3 342 23 348
3 347 23 349
2 348 350
2 349 351
3 343 350 352
3 341 350 353
3 340 350 354
3 344 351 355
3 345 351 356
3 346 351 357
2 352 358
2 353 359
2 354 360
2 355 361
2 356 362
2 357 363
3 358 8 364
3 359 11 365
3 360 1 366
3 361 8 367
3 362 11 368
3 363 1 369
3 365 366 370
3 368 369 371
3 370 364 372
3 371 367 373
2 372 374
2 373 375

2
 0.0 1.0

2
 0.19999999999999996 0.8

2
 1.0 0.0

2
 1.0 0.0

2
 1.0 0.0

2
 1.0 0.0

2
 1.0 0.0

2
 0.0 1.0

2
 0.19999999999999996 0.8

2
 0.0 1.0

2
 1.0 0.0

2
 0.19999999999999996 0.8

2
 1.0 0.0

2
 1.0 0.0

4
 0.7 0.3
 0.19999999999999996 0.8

4
 0.7 0.3
 0.19999999999999996 0.8

4
 0.7 0.3
 0.19999999999999996 0.8

4
 1.0 0.0
 0.0 1.0

4
 1.0 0.0
 0.0 1.0

4
 1.0 0.0
 0.0 1.0

4
 1.0 0.0
 0.0 1.0

8
 1.0 0.0
 1.0 0.0
 1.0 0.0
 0.0 1.0

8
 1.0 0.0
 0.0 1.0
 0.0 1.0
 0.0 1.0

8
 1.0 0.0
 1.0 0.0
 1.0 0.0
 0.0 1.0

8
 1.0 0.0
 0.0 1.0
 0.0 1.0
 0.0 1.0

4
 1.0 0.0
 0.0 1.0

4
 1.0 0.0
 0.0 1.0

8
 1.0 0.0
 1.0 0.0
 1.0 0.0
 0.0 1.0

8
 1.0 0.0
 0.0 1.0
 0.0 1.0
 0.0 1.0

8
 1.0 0.0
 0.0 1.0
 1.0 0.0
 1.0 0.0

8
 1.0 0.0
 1.0 0.0
 1.0 0.0
 0.0 1.0

8
 1.0 0.0
 0.0 1.0
 0.0 1.0
 0.0 1.0

4
 1.0 0.0
 0.0 1.0

8
 1.0 0.0
 0.0 1.0
 0.5 0.5
 0.5 0.5

8
 1.0 0.0
 0.0 1.0
 0.5 0.5
 0.5 0.5

8
 1.0 0.0
 0.0 1.0
 0.0 1.0
 0.0 1.0

4
 1.0 0.0
 0.0 1.0

8
 1.0 0.0
 0.0 1.0
 0.0 1.0
 0.0 1.0

8
 1.0 0.0
 1.0 0.0
 1.0 0.0
 0.0 1.0

8
 1.0 0.0
 1.0 0.0
 1.0 0.0
 0.0 1.0

8
 1.0 0.0
 1.0 0.0
 1.0 0.0
 0.0 1.0

4
 1.0 0.0
 0.0 1.0

8
 1.0 0.0
 1.0 0.0
 1.0 0.0
 0.0 1.0

8
 1.0 0.0
 0.0 1.0
 1.0 0.0
 1.0 0.0

4
 1.0 0.0
 0.0 1.0

8
 1.0 0.0
 0.0 1.0
 0.0 1.0
 0.0 1.0

8
 1.0 0.0
 1.0 0.0
 1.0 0.0
 0.0 1.0

8
 1.0 0.0
 0.0 1.0
 1.0 0.0
 1.0 0.0

8
 1.0 0.0
 0.0 1.0
 0.0 1.0
 0.0 1.0

8
 1.0 0.0
 1.0 0.0
 1.0 0.0
 0.0 1.0

8
 1.0 0.0
 0.0 1.0
 0.0 1.0
 0.0 1.0

4
 1.0 0.0
 0.0 1.0

8
 1.0 0.0
 0.0 1.0
 0.0 1.0
 0.0 1.0

8
 1.0 0.0
 0.0 1.0
 0.5 0.5
 0.0 1.0

8
 1.0 0.0
 0.0 1.0
 0.5 0.5
 0.0 1.0

4
 1.0 0.0
 0.0 1.0

4
 1.0 0.0
 0.0 1.0

8
 1.0 0.0
 1.0 0.0
 1.0 0.0
 0.0 1.0

8
 1.0 0.0
 0.0 1.0
 0.0 1.0
 0.0 1.0

8
 1.0 0.0
 0.0 1.0
 1.0 0.0
 1.0 0.0

4
 1.0 0.0
 0.0 1.0

8
 1.0 0.0
 0.0 1.0
 0.6666666666666667 0.3333333333333333
 0.6666666666666667 0.3333333333333333

8
 1.0 0.0
 0.0 1.0
 0.6666666666666667 0.3333333333333333
 0.6666666666666667 0.3333333333333333

8
 1.0 0.0
 1.0 0.0
 1.0 0.0
 0.0 1.0

8
 1.0 0.0
 0.0 1.0
 1.0 0.0
 1.0 0.0

8
 1.0 0.0
 0.0 1.0
 0.0 1.0
 0.0 1.0

8
 1.0 0.0
 1.0 0.0
 1.0 0.0
 0.0 1.0

8
 1.0 0.0
 0.0 1.0
 0.0 1.0
 0.0 1.0

4
 1.0 0.0
 0.0 1.0

8
 1.0 0.0
 0.0 1.0
 1.0 0.0
 1.0 0.0

8
 1.0 0.0
 1.0 0.0
 1.0 0.0
 0.0 1.0

8
 1.0 0.0
 1.0 0.0
 1.0 0.0
 0.0 1.0

8
 1.0 0.0
 1.0 0.0
 1.0 0.0
 0.0 1.0

8
 1.0 0.0
 0.0 1.0
 0.0 1.0
 0.0 1.0

4
 1.0 0.0
 0.0 1.0

4
 1.0 0.0
 0.0 1.0

8
 1.0 0.0
 0.0 1.0
 0.0 1.0
 0.0 1.0

8
 1.0 0.0
 0.0 1.0
 1.0 0.0
 1.0 0.0

8
 1.0 0.0
 1.0 0.0
 1.0 0.0
 0.0 1.0

8
 1.0 0.0
 0.5 0.5
 0.6666666666666667 0.3333333333333333
 0.33333333333333337 0.6666666666666666

8
 1.0 0.0
 0.5 0.5
 0.6666666666666667 0.3333333333333333
 0.33333333333333337 0.6666666666666666

8
 1.0 0.0
 0.0 1.0
 0.0 1.0
 0.0 1.0

4
 1.0 0.0
 0.0 1.0

8
 1.0 0.0
 1.0 0.0
 1.0 0.0
 0.0 1.0

8
 1.0 0.0
 0.0 1.0
 0.0 1.0
 0.0 1.0

8
 1.0 0.0
 0.0 1.0
 1.0 0.0
 1.0 0.0

8
 1.0 0.0
 1.0 0.0
 1.0 0.0
 0.0 1.0

4
 1.0 0.0
 0.0 1.0

8
 1.0 0.0
 0.0 1.0
 0.0 1.0
 0.0 1.0

8
 1.0 0.0
 0.0 1.0
 0.0 1.0
 0.0 1.0

8
 1.0 0.0
 0.0 1.0
 0.0 1.0
 0.0 1.0

4
 1.0 0.0
 0.0 1.0

8
 1.0 0.0
 0.0 1.0
 1.0 0.0
 1.0 0.0

8
 1.0 0.0
 1.0 0.0
 1.0 0.0
 0.0 1.0

4
 1.0 0.0
 0.0 1.0

8
 1.0 0.0
 0.0 1.0
 0.0 1.0
 0.0 1.0

8
 1.0 0.0
 1.0 0.0
 1.0 0.0
 0.0 1.0

8
 1.0 0.0
 0.0 1.0
 0.0 1.0
 0.0 1.0

8
 1.0 0.0
 0.0 1.0
 1.0 0.0
 1.0 0.0

4
 1.0 0.0
 0.0 1.0

8
 1.0 0.0
 0.0 1.0
 0.75 0.25
 0.75 0.25

8
 1.0 0.0
 0.0 1.0
 0.75 0.25
 0.75 0.25

8
 1.0 0.0
 1.0 0.0
 1.0 0.0
 0.0 1.0

8
 1.0 0.0
 0.0 1.0
 1.0 0.0
 1.0 0.0

8
 1.0 0.0
 0.0 1.0
 0.0 1.0
 0.0 1.0

8
 1.0 0.0
 0.0 1.0
 0.0 1.0
 0.0 1.0

8
 1.0 0.0
 1.0 0.0
 1.0 0.0
 0.0 1.0

4
 1.0 0.0
 0.0 1.0

4
 1.0 0.0
 0.0 1.0

8
 1.0 0.0
 0.0 1.0
 1.0 0.0
 1.0 0.0

8
 1.0 0.0
 0.0 1.0
 0.0 1.0
 0.0 1.0

8
 1.0 0.0
 1.0 0.0
 1.0 0.0
 0.0 1.0

8
 1.0 0.0
 1.0 0.0
 1.0 0.0
 0.0 1.0

8
 1.0 0.0
 1.0 0.0
 1.0 0.0
 0.0 1.0

8
 1.0 0.0
 0.0 1.0
 0.0 1.0
 0.0 1.0

8
 1.0 0.0
 0.6666666666666667 0.3333333333333333
 0.75 0.25
 0.5 0.5

8
 1.0 0.0
 0.6666666666666667 0.3333333333333333
 0.75 0.25
 0.5 0.5

4
 1.0 0.0
 0.0 1.0

4
 1.0 0.0
 0.0 1.0

8
 1.0 0.0
 0.0 1.0
 1.0 0.0
 1.0 0.0

8
 1.0 0.0
 1.0 0.0
 1.0 0.0
 0.0 1.0

8
 1.0 0.0
 0.0 1.0
 0.0 1.0
 0.0 1.0

8
 1.0 0.0
 1.0 0.0
 1.0 0.0
 0.0 1.0

8
 1.0 0.0
 0.0 1.0
 1.0 0.0
 1.0 0.0

4
 1.0 0.0
 0.0 1.0

8
 1.0 0.0
 0.0 1.0
 0.0 1.0
 0.0 1.0

4
 1.0 0.0
 0.0 1.0

8
 1.0 0.0
 0.5 0.5
 0.0 1.0
 0.0 1.0

8
 1.0 0.0
 0.5 0.5
 0.0 1.0
 0.0 1.0

8
 1.0 0.0
 1.0 0.0
 1.0 0.0
 0.0 1.0

8
 1.0 0.0
 0.0 1.0
 1.0 0.0
 1.0 0.0

8
 1.0 0.0
 0.0 1.0
 0.0 1.0
 0.0 1.0

8
 1.0 0.0
 1.0 0.0
 1.0 0.0
 0.0 1.0

8
 1.0 0.0
 0.0 1.0
 0.0 1.0
 0.0 1.0

4
 1.0 0.0
 0.0 1.0

8
 1.0 0.0
 1.0 0.0
 1.0 0.0
 0.0 1.0

8
 1.0 0.0
 0.0 1.0
 1.0 0.0
 1.0 0.0

8
 1.0 0.0
 0.0 1.0
 0.0 1.0
 0.0 1.0

4
 1.0 0.0
 0.0 1.0

8
 1.0 0.0
 0.0 1.0
 1.0 0.0
 1.0 0.0

8
 1.0 0.0
 1.0 0.0
 1.0 0.0
 0.0 1.0

8
 1.0 0.0
 0.0 1.0
 0.0 1.0
 0.0 1.0

8
 1.0 0.0
 0.0 1.0
 0.0 1.0
 0.0 1.0

8
 1.0 0.0
 0.0 1.0
 0.0 1.0
 0.0 1.0

4
 1.0 0.0
 0.0 1.0

4
 1.0 0.0
 0.0 1.0

8
 1.0 0.0
 0.0 1.0
 1.0 0.0
 1.0 0.0

8
 1.0 0.0
 0.0 1.0
 0.0 1.0
 0.0 1.0

8
 1.0 0.0
 1.0 0.0
 1.0 0.0
 0.0 1.0

4
 1.0 0.0
 0.0 1.0

8
 1.0 0.0
 0.0 1.0
 0.0 1.0
 0.0 1.0

8
 1.0 0.0
 1.0 0.0
 1.0 0.0
 0.0 1.0

8
 1.0 0.0
 0.0 1.0
 1.0 0.0
 1.0 0.0

8
 1.0 0.0
 0.75 0.25
 0.8 0.2
 0.6 0.4

8
 1.0 0.0
 0.75 0.25
 0.8 0.2
 0.6 0.4

8
 1.0 0.0
 0.0 1.0
 0.0 1.0
 0.0 1.0

8
 1.0 0.0
 0.0 1.0
 0.8 0.2
 0.8 0.2

8
 1.0 0.0
 0.0 1.0
 0.8 0.2
 0.8 0.2

4
 1.0 0.0
 0.0 1.0

8
 1.0 0.0
 1.0 0.0
 1.0 0.0
 0.0 1.0

8
 1.0 0.0
 0.0 1.0
 1.0 0.0
 1.0 0.0

4
 1.0 0.0
 0.0 1.0

8
 1.0 0.0
 0.0 1.0
 1.0 0.0
 1.0 0.0

8
 1.0 0.0
 0.0 1.0
 0.0 1.0
 0.0 1.0

8
 1.0 0.0
 1.0 0.0
 1.0 0.0
 0.0 1.0

4
 1.0 0.0
 0.0 1.0

8
 1.0 0.0
 0.0 1.0
 0.0 1.0
 0.0 1.0

8
 1.0 0.0
 0.6666666666666667 0.3333333333333333
 0.0 1.0
 0.0 1.0

8
 1.0 0.0
 0.6666666666666667 0.3333333333333333
 0.0 1.0
 0.0 1.0

4
 1.0 0.0
 0.0 1.0

8
 1.0 0.0
 1.0 0.0
 1.0 0.0
 0.0 1.0

8
 1.0 0.0
 1.0 0.0
 1.0 0.0
 0.0 1.0

8
 1.0 0.0
 0.0 1.0
 1.0 0.0
 1.0 0.0

8
 1.0 0.0
 1.0 0.0
 1.0 0.0
 0.0 1.0

8
 1.0 0.0
 0.0 1.0
 0.0 1.0
 0.0 1.0

8
 1.0 0.0
 0.0 1.0
 1.0 0.0
 1.0 0.0

4
 1.0 0.0
 0.0 1.0

8
 1.0 0.0
 0.0 1.0
 1.0 0.0
 1.0 0.0

8
 1.0 0.0
 1.0 0.0
 1.0 0.0
 0.0 1.0

8
 1.0 0.0
 0.0 1.0
 0.0 1.0
 0.0 1.0

4
 1.0 0.0
 0.0 1.0

8
 1.0 0.0
 0.5 0.5
 0.0 1.0
 0.0 1.0

8
 1.0 0.0
 0.5 0.5
 0.0 1.0
 0.0 1.0

8
 1.0 0.0
 1.0 0.0
 1.0 0.0
 0.0 1.0

8
 1.0 0.0
 0.0 1.0
 1.0 0.0
 1.0 0.0

8
 1.0 0.0
 0.0 1.0
 0.0 1.0
 0.0 1.0

4
 1.0 0.0
 0.0 1.0

8
 1.0 0.0
 0.0 1.0
 1.0 0.0
 1.0 0.0

4
 1.0 0.0
 0.0 1.0

8
 1.0 0.0
 1.0 0.0
 1.0 0.0
 0.0 1.0

8
 1.0 0.0
 0.0 1.0
 0.0 1.0
 0.0 1.0

8
 1.0 0.0
 0.0 1.0
 1.0 0.0
 1.0 0.0

8
 1.0 0.0
 0.0 1.0
 0.0 1.0
 0.0 1.0

8
 1.0 0.0
 0.0 1.0
 0.0 1.0
 0.0 1.0

8
 1.0 0.0
 0.0 1.0
 0.0 1.0
 0.0 1.0

8
 1.0 0.0
 0.8 0.2
 0.8333333333333334 0.16666666666666666
 0.6666666666666666 0.33333333333333337

8
 1.0 0.0
 0.8 0.2
 0.8333333333333334 0.16666666666666666
 0.6666666666666666 0.33333333333333337

4
 1.0 0.0
 0.0 1.0

8
 1.0 0.0
 1.0 0.0
 1.0 0.0
 0.0 1.0

8
 1.0 0.0
 0.0 1.0
 1.0 0.0
 1.0 0.0

8
 1.0 0.0
 0.0 1.0
 1.0 0.0
 1.0 0.0

8
 1.0 0.0
 0.0 1.0
 0.0 1.0
 0.0 1.0

4
 1.0 0.0
 0.0 1.0

8
 1.0 0.0
 0.0 1.0
 0.8333333333333334 0.16666666666666666
 0.8333333333333334 0.16666666666666666

8
 1.0 0.0
 0.0 1.0
 0.8333333333333334 0.16666666666666666
 0.8333333333333334 0.16666666666666666

4
 1.0 0.0
 0.0 1.0

8
 1.0 0.0
 0.75 0.25
 0.0 1.0
 0.0 1.0

8
 1.0 0.0
 0.75 0.25
 0.0 1.0
 0.0 1.0

8
 1.0 0.0
 1.0 0.0
 1.0 0.0
 0.0 1.0

8
 1.0 0.0
 0.0 1.0
 1.0 0.0
 1.0 0.0

8
 1.0 0.0
 0.0 1.0
 0.0 1.0
 0.0 1.0

4
 1.0 0.0
 0.0 1.0

8
 1.0 0.0
 0.0 1.0
 1.0 0.0
 1.0 0.0

8
 1.0 0.0
 1.0 0.0
 1.0 0.0
 0.0 1.0

8
 1.0 0.0
 1.0 0.0
 1.0 0.0
 0.0 1.0

8
 1.0 0.0
 1.0 0.0
 1.0 0.0
 0.0 1.0

8
 1.0 0.0
 0.0 1.0
 1.0 0.0
 1.0 0.0

8
 1.0 0.0
 0.6666666666666667 0.3333333333333333
 0.0 1.0
 0.0 1.0

8
 1.0 0.0
 0.6666666666666667 0.3333333333333333
 0.0 1.0
 0.0 1.0

8
 1.0 0.0
 0.0 1.0
 0.0 1.0
 0.0 1.0

4
 1.0 0.0
 0.0 1.0

8
 1.0 0.0
 0.0 1.0
 1.0 0.0
 1.0 0.0

8
 1.0 0.0
 0.0 1.0
 0.0 1.0
 0.0 1.0

8
 1.0 0.0
 0.8333333333333334 0.16666666666666666
 0.8571428571428572 0.14285714285714285
 0.7142857142857143 0.2857142857142857

8
 1.0 0.0
 0.8333333333333334 0.16666666666666666
 0.8571428571428572 0.14285714285714285
 0.7142857142857143 0.2857142857142857

8
 1.0 0.0
 0.5 0.5
 0.0 1.0
 0.0 1.0

8
 1.0 0.0
 0.5 0.5
 0.0 1.0
 0.0 1.0

4
 1.0 0.0
 0.0 1.0

8
 1.0 0.0
 0.0 1.0
 1.0 0.0
 1.0 0.0

4
 1.0 0.0
 0.0 1.0

8
 1.0 0.0
 0.8 0.2
 0.0 1.0
 0.0 1.0

8
 1.0 0.0
 0.8 0.2
 0.0 1.0
 0.0 1.0

8
 1.0 0.0
 0.0 1.0
 0.0 1.0
 0.0 1.0

8
 1.0 0.0
 0.0 1.0
 0.0 1.0
 0.0 1.0

8
 1.0 0.0
 0.0 1.0
 1.0 0.0
 1.0 0.0

8
 1.0 0.0
 0.0 1.0
 1.0 0.0
 1.0 0.0

8
 1.0 0.0
 0.75 0.25
 0.0 1.0
 0.0 1.0

8
 1.0 0.0
 0.75 0.25
 0.0 1.0
 0.0 1.0

8
 1.0 0.0
 0.0 1.0
 0.8571428571428572 0.14285714285714285
 0.8571428571428572 0.14285714285714285

8
 1.0 0.0
 0.0 1.0
 0.8571428571428572 0.14285714285714285
 0.8571428571428572 0.14285714285714285

8
 1.0 0.0
 0.8571428571428572 0.14285714285714285
 0.875 0.125
 0.75 0.25

8
 1.0 0.0
 0.8571428571428572 0.14285714285714285
 0.875 0.125
 0.75 0.25

8
 1.0 0.0
 0.6666666666666667 0.3333333333333333
 0.0 1.0
 0.0 1.0

8
 1.0 0.0
 0.6666666666666667 0.3333333333333333
 0.0 1.0
 0.0 1.0

8
 1.0 0.0
 1.0 0.0
 1.0 0.0
 0.0 1.0

8
 1.0 0.0
 1.0 0.0
 1.0 0.0
 0.0 1.0

8
 1.0 0.0
 0.8333333333333334 0.16666666666666666
 0.0 1.0
 0.0 1.0

8
 1.0 0.0
 0.8333333333333334 0.16666666666666666
 0.0 1.0
 0.0 1.0

8
 1.0 0.0
 0.5 0.5
 0.0 1.0
 0.0 1.0

8
 1.0 0.0
 0.5 0.5
 0.0 1.0
 0.0 1.0

8
 1.0 0.0
 0.8 0.2
 0.0 1.0
 0.0 1.0

8
 1.0 0.0
 0.8 0.2
 0.0 1.0
 0.0 1.0

8
 1.0 0.0
 0.0 1.0
 0.0 1.0
 0.0 1.0

8
 1.0 0.0
 0.0 1.0
 0.0 1.0
 0.0 1.0

8
 1.0 0.0
 0.75 0.25
 0.0 1.0
 0.0 1.0

8
 1.0 0.0
 0.75 0.25
 0.0 1.0
 0.0 1.0

8
 1.0 0.0
 0.0 1.0
 0.875 0.125
 0.875 0.125

8
 1.0 0.0
 0.0 1.0
 0.875 0.125
 0.875 0.125

8
 1.0 0.0
 0.6666666666666667 0.3333333333333333
 0.0 1.0
 0.0 1.0

8
 1.0 0.0
 0.6666666666666667 0.3333333333333333
 0.0 1.0
 0.0 1.0

8
 1.0 0.0
 1.0 0.0
 1.0 0.0
 0.0 1.0

8
 1.0 0.0
 1.0 0.0
 1.0 0.0
 0.0 1.0

8
 1.0 0.0
 0.5 0.5
 0.0 1.0
 0.0 1.0

8
 1.0 0.0
 0.5 0.5
 0.0 1.0
 0.0 1.0

8
 1.0 0.0
 0.0 1.0
 0.0 1.0
 0.0 1.0

8
 1.0 0.0
 0.0 1.0
 0.0 1.0
 0.0 1.0

8
 1.0 0.0
 0.0 1.0
 0.8888888888888888 0.1111111111111111
 0.8888888888888888 0.1111111111111111

8
 1.0 0.0
 0.0 1.0
 0.8888888888888888 0.1111111111111111
 0.8888888888888888 0.1111111111111111

8
 1.0 0.0
 1.0 0.0
 1.0 0.0
 0.0 1.0

8
 1.0 0.0
 1.0 0.0
 1.0 0.0
 0.0 1.0

4
 1.0 0.0
 0.0 1.0

4
 1.0 0.0
 0.0 1.0

8
 1.0 0.0
 0.0 1.0
 1.0 0.0
 1.0 0.0

8
 1.0 0.0
 0.0 1.0
 1.0 0.0
 1.0 0.0

4
 1.0 0.0
 0.0 1.0

4
 1.0 0.0
 0.0 1.0

8
 1.0 0.0
 0.0 1.0
 0.0 1.0
 0.0 1.0

8
 1.0 0.0
 1.0 0.0
 1.0 0.0
 1.0 0.0

8
 1.0 0.0
 0.0 1.0
 0.0 1.0
 0.0 1.0

8
 1.0 0.0
 1.0 0.0
 1.0 0.0
 1.0 0.0

8
 1.0 0.0
 0.0 1.0
 1.0 0.0
 1.0 0.0

8
 1.0 0.0
 0.0 1.0
 1.0 0.0
 1.0 0.0

4
 1.0 0.0
 0.0 1.0

4
 1.0 0.0
 0.0 1.0

8
 1.0 0.0
 1.0 0.0
 0.0 1.0
 0.0 1.0

8
 1.0 0.0
 0.0 1.0
 0.0 1.0
 0.0 1.0

8
 1.0 0.0
 1.0 0.0
 0.0 1.0
 0.0 1.0

8
 1.0 0.0
 0.0 1.0
 0.0 1.0
 0.0 1.0

8
 1.0 0.0
 0.0 1.0
 1.0 0.0
 1.0 0.0

8
 1.0 0.0
 0.0 1.0
 1.0 0.0
 1.0 0.0

4
 1.0 0.0
 0.0 1.0

4
 1.0 0.0
 0.0 1.0

8
 1.0 0.0
 0.0 1.0
 0.0 1.0
 0.0 1.0

8
 1.0 0.0
 1.0 0.0
 0.0 1.0
 0.0 1.0

8
 1.0 0.0
 1.0 0.0
 0.0 1.0
 0.0 1.0

8
 1.0 0.0
 0.0 1.0
 0.0 1.0
 0.0 1.0

8
 1.0 0.0
 1.0 0.0
 0.0 1.0
 0.0 1.0

8
 1.0 0.0
 0.0 1.0
 0.0 1.0
 0.0 1.0

8
 1.0 0.0
 0.0 1.0
 0.0 1.0
 0.0 1.0

8
 1.0 0.0
 1.0 0.0
 0.0 1.0
 0.0 1.0

8
 1.0 0.0
 0.0 1.0
 1.0 0.0
 1.0 0.0

8
 1.0 0.0
 0.0 1.0
 1.0 0.0
 1.0 0.0

4
 1.0 0.0
 0.0 1.0

4
 1.0 0.0
 0.0 1.0

8
 1.0 0.0
 1.0 0.0
 0.0 1.0
 0.0 1.0

8
 1.0 0.0
 1.0 0.0
 0.0 1.0
 0.0 1.0

8
 1.0 0.0
 0.0 1.0
 0.0 1.0
 0.0 1.0

8
 1.0 0.0
 0.0 1.0
 0.0 1.0
 0.0 1.0

8
 1.0 0.0
 0.0 1.0
 0.0 1.0
 0.0 1.0

8
 1.0 0.0
 1.0 0.0
 0.0 1.0
 0.0 1.0

8
 1.0 0.0
 1.0 0.0
 0.0 1.0
 0.0 1.0

8
 1.0 0.0
 0.0 1.0
 0.0 1.0
 0.0 1.0

8
 1.0 0.0
 0.0 1.0
 1.0 0.0
 1.0 0.0

8
 1.0 0.0
 0.0 1.0
 1.0 0.0
 1.0 0.0

4
 1.0 0.0
 0.0 1.0

4
 1.0 0.0
 0.0 1.0

8
 1.0 0.0
 1.0 0.0
 0.0 1.0
 0.0 1.0

8
 1.0 0.0
 0.0 1.0
 0.0 1.0
 0.0 1.0

8
 1.0 0.0
 1.0 0.0
 0.0 1.0
 0.0 1.0

8
 1.0 0.0
 0.0 1.0
 0.0 1.0
 0.0 1.0

8
 1.0 0.0
 0.0 1.0
 0.0 1.0
 0.0 1.0

8
 1.0 0.0
 0.0 1.0
 0.0 1.0
 0.0 1.0

8
 1.0 0.0
 1.0 0.0
 0.0 1.0
 0.0 1.0

8
 1.0 0.0
 1.0 0.0
 0.0 1.0
 0.0 1.0

8
 1.0 0.0
 0.0 1.0
 1.0 0.0
 1.0 0.0

8
 1.0 0.0
 0.0 1.0
 1.0 0.0
 1.0 0.0

4
 1.0 0.0
 0.0 1.0

4
 1.0 0.0
 0.0 1.0

8
 1.0 0.0
 0.0 1.0
 0.0 1.0
 0.0 1.0

8
 1.0 0.0
 0.0 1.0
 0.0 1.0
 0.0 1.0

8
 1.0 0.0
 1.0 0.0
 0.0 1.0
 0.0 1.0

8
 1.0 0.0
 1.0 0.0
 0.0 1.0
 0.0 1.0

8
 1.0 0.0
 1.0 0.0
 0.0 1.0
 0.0 1.0

8
 1.0 0.0
 0.0 1.0
 0.0 1.0
 0.0 1.0

8
 1.0 0.0
 0.0 1.0
 0.0 1.0
 0.0 1.0

8
 1.0 0.0
 1.0 0.0
 0.0 1.0
 0.0 1.0

8
 1.0 0.0
 0.0 1.0
 1.0 0.0
 1.0 0.0

8
 1.0 0.0
 0.0 1.0
 1.0 0.0
 1.0 0.0

4
 1.0 0.0
 0.0 1.0

4
 1.0 0.0
 0.0 1.0

8
 1.0 0.0
 1.0 0.0
 0.0 1.0
 0.0 1.0

8
 1.0 0.0
 1.0 0.0
 0.0 1.0
 0.0 1.0

8
 1.0 0.0
 0.0 1.0
 0.0 1.0
 0.0 1.0

8
 1.0 0.0
 0.0 1.0
 0.0 1.0
 0.0 1.0

8
 1.0 0.0
 0.0 1.0
 0.0 1.0
 0.0 1.0

8
 1.0 0.0
 1.0 0.0
 0.0 1.0
 0.0 1.0

8
 1.0 0.0
 1.0 0.0
 0.0 1.0
 0.0 1.0

8
 1.0 0.0
 0.0 1.0
 0.0 1.0
 0.0 1.0

8
 1.0 0.0
 0.0 1.0
 1.0 0.0
 1.0 0.0

8
 1.0 0.0
 0.0 1.0
 1.0 0.0
 1.0 0.0

4
 1.0 0.0
 0.0 1.0

4
 1.0 0.0
 0.0 1.0

8
 1.0 0.0
 0.0 1.0
 0.0 1.0
 0.0 1.0

8
 1.0 0.0
 1.0 0.0
 0.0 1.0
 0.0 1.0

8
 1.0 0.0
 1.0 0.0
 0.0 1.0
 0.0 1.0

8
 1.0 0.0
 0.0 1.0
 0.0 1.0
 0.0 1.0

8
 1.0 0.0
 1.0 0.0
 0.0 1.0
 0.0 1.0

8
 1.0 0.0
 1.0 0.0
 0.0 1.0
 0.0 1.0

4
 1.0 0.0
 0.0 1.0

4
 1.0 0.0
 0.0 1.0

4
 1.0 0.0
 0.0 1.0

4
 1.0 0.0
 0.0 1.0

4
 1.0 0.0
 0.0 1.0

4
 1.0 0.0
 0.0 1.0

8
 1.0 0.0
 1.0 0.0
 0.8 0.2
 0.30000000000000004 0.7

8
 1.0 0.0
 1.0 0.0
 0.8 0.2
 0.30000000000000004 0.7

8
 1.0 0.0
 1.0 0.0
 0.8 0.2
 0.30000000000000004 0.7

8
 1.0 0.0
 1.0 0.0
 0.8 0.2
 0.30000000000000004 0.7

8
 1.0 0.0
 1.0 0.0
 0.8 0.2
 0.30000000000000004 0.7

8
 1.0 0.0
 1.0 0.0
 0.8 0.2
 0.30000000000000004 0.7

8
 1.0 0.0
 0.0 1.0
 0.0 1.0
 0.0 1.0

8
 1.0 0.0
 0.0 1.0
 0.0 1.0
 0.0 1.0

8
 1.0 0.0
 0.0 1.0
 0.0 1.0
 0.0 1.0

8
 1.0 0.0
 0.0 1.0
 0.0 1.0
 0.0 1.0

4
 1.0 0.0
 0.0 1.0

4
 1.0 0.0
 0.0 1.0

